p cnf 15 36
7 -11 -12 0
-2 6 12 0
7 8 -11 0
-3 5 10 0
1 3 -11 0
2 6 7 0
4 -9 15 0
3 4 14 0
-3 -8 12 0
-5 -8 -12 0
-5 -6 -10 0
5 14 -15 0
8 11 15 0
5 11 12 0
-10 11 12 0
4 -8 -12 0
3 -4 -14 0
1 5 9 0
-4 -7 -15 0
-3 -6 -13 0
5 -9 -15 0
1 -3 -7 0
-1 9 -15 0
3 -8 10 0
2 4 -9 0
6 12 -15 0
-4 9 -11 0
2 -9 -13 0
4 10 13 0
2 -8 -10 0
-1 -7 13 0
6 -13 -15 0
8 -9 -14 0
-3 10 15 0
7 -11 -15 0
5 9 -12 0
